232
277
316
245
231
238
318
199
326
267
191
293
215
276
295
294
285
307
274
243
250
306
263
276
275
307
218
304
269
386
261
313
281
319
299
278
219
329
240
213
243
370
192
271
230
225
213
246
285
218
240
383
220
260
238
190
263
334
338
251
281
392
257
223
291
224
427
313
266
182
239
374
316
245
205
267
219
256
304
238
182
262
263
233
229
197
374
257
263
279
355
237
323
416
301
211
316
287
219
275
